seed= 2052018 ;
N= 14 ;
M= 2 ;
F= 2 ;
K= 4 ;
T= 36 ;

p=[ 10 10 10 10 10 10 10 4 4 4 4 4 4 4 ];
r=[ 6 1 3 4 1 1 3 6 0 5 4 2 5 1 ];
d=[ 10 9 7 7 13 4 14 14 7 4 15 13 0 9 ];
s=[ 1 1 1 1 1 1 1 1 1 1 1 1 1 1 ];
w=[ 1 2 5 1 4 2 2 4 3 5 2 4 3 3 ];
f=[ 1 1 1 1 1 1 1 2 2 2 2 2 2 2 ];

e1=[ 10 10 10 10 10 10 10 10 10 10 10 10 10 10 10 10 10 10 8 8 8 8 8 8 8 8 8 8 8 8 8 8 8 8 8 8 ];
e2=[ 10 10 10 10 10 10 10 10 10 10 10 10 9 9 9 9 9 9 8 8 8 8 8 8 8 8 8 8 8 8 9 9 9 9 9 9 ];